(declare-const a sl.list.loc)
(declare-const b sl.list.loc)
(declare-const c sl.list.loc)
(declare-const d sl.list.loc)
(declare-const e sl.list.loc)
(declare-const f sl.list.loc)
(declare-const g sl.list.loc)
(declare-const h sl.list.loc)
(assert (sl.sepcon
         (sl.sepcon (sl.sepcon (sl.list.next a b)
                               (sl.list.next b c))
                    (sl.sepcon (sl.list.next c d)
                               (sl.list.next d e)))
         (sl.sepcon (sl.sepcon (sl.list.next e f)
                               (sl.list.next f g))
                    (sl.sepcon (sl.list.next g h)
                               (sl.list.next h a)))))
